solution status: optimal solution found
objective value:                     175699.576715226
d11(0,0)                                            1 	(obj:0)
d11(1,1)                                            1 	(obj:0)
d11(2,3)                                            1 	(obj:0)
d11(2,4)                                            1 	(obj:0)
d11(2,5)                                            1 	(obj:0)
d11(2,6)                                            1 	(obj:0)
d11(3,7)                            0.999999999999985 	(obj:0)
d11(5,39)                                           1 	(obj:0)
d11(5,43)                                           1 	(obj:0)
d11(5,45)                                           1 	(obj:0)
d11(5,55)                                           1 	(obj:0)
d12(3,8)                                            1 	(obj:0)
d12(3,10)                                           1 	(obj:0)
d12(3,12)                                           1 	(obj:0)
d12(3,14)                                           1 	(obj:0)
d12(4,16)                                           1 	(obj:0)
d12(4,18)                                           1 	(obj:0)
d12(4,20)                                           1 	(obj:0)
d12(4,22)                                           1 	(obj:0)
d12(4,24)                                           1 	(obj:0)
d12(4,26)                                           1 	(obj:0)
d12(4,28)                                           1 	(obj:0)
d12(4,30)                                           1 	(obj:0)
d12(5,32)                                           1 	(obj:0)
d12(5,34)                                           1 	(obj:0)
d12(5,36)                                           1 	(obj:0)
d12(5,38)                                           1 	(obj:0)
d12(5,40)                                           1 	(obj:0)
d12(5,42)                                           1 	(obj:0)
d12(5,44)                                           1 	(obj:0)
d12(5,46)                                           1 	(obj:0)
d12(5,48)                                           1 	(obj:0)
d12(5,50)                                           1 	(obj:0)
d12(5,52)                                           1 	(obj:0)
d12(5,54)                                           1 	(obj:0)
d12(5,56)                                           1 	(obj:0)
d12(5,58)                                           1 	(obj:0)
d12(5,60)                                           1 	(obj:0)
d12(5,62)                                           1 	(obj:0)
d21(2,3)                                            1 	(obj:0)
d21(3,7)                                            1 	(obj:0)
d21(4,15)                                           1 	(obj:0)
d21(4,16)                                           1 	(obj:0)
d21(4,17)                                           1 	(obj:0)
d21(4,19)                                           1 	(obj:0)
d21(4,23)                                           1 	(obj:0)
d21(5,31)                                           1 	(obj:0)
d21(5,32)                                           1 	(obj:0)
d21(5,33)                                           1 	(obj:0)
d21(5,34)                                           1 	(obj:0)
d21(5,35)                                           1 	(obj:0)
d21(5,36)                                           1 	(obj:0)
d21(5,37)                                           1 	(obj:0)
d21(5,39)                                           1 	(obj:0)
d21(5,40)                                           1 	(obj:0)
d21(5,41)                                           1 	(obj:0)
d21(5,43)                                           1 	(obj:0)
d21(5,47)                                           1 	(obj:0)
d21(5,48)                                           1 	(obj:0)
d21(5,49)                                           1 	(obj:0)
d21(5,51)                                           1 	(obj:0)
y2(5,40)                             1385.48851144895 	(obj:0)
y2(5,42)                             1385.48851144895 	(obj:0)
y2(5,44)                             1385.48851144899 	(obj:0)
y2(5,46)                             1385.48851144899 	(obj:0)
y2(5,48)                             1385.48851144899 	(obj:0)
y2(5,50)                             1385.48851144895 	(obj:0)
y2(5,52)                             1385.48851144895 	(obj:0)
y2(5,54)                             1385.48851144895 	(obj:0)
y2(5,56)                             1385.48851144895 	(obj:0)
y2(5,58)                             1385.48851144895 	(obj:0)
y2(5,60)                             1385.48851144895 	(obj:0)
y2(5,62)                             1385.48851144895 	(obj:0)
STE(1,1)                             9933.75010111115 	(obj:0)
STE(0,0)                                        12600 	(obj:0)
STE(1,2)                                        11592 	(obj:0)
STE(2,3)                             6007.50020208865 	(obj:0)
STE(2,4)                             7665.75010097746 	(obj:0)
STE(2,5)                             7665.75010097749 	(obj:0)
STE(2,6)                             9323.99999986631 	(obj:0)
STE(3,7)                             4999.50020208865 	(obj:0)
STE(3,8)                             6315.71428796515 	(obj:0)
STE(3,9)                             6657.75010097746 	(obj:0)
STE(3,10)                            7973.96418685397 	(obj:0)
STE(3,11)                            6657.75010097749 	(obj:0)
STE(3,12)                              7973.964186854 	(obj:0)
STE(3,13)                            8315.99999986631 	(obj:0)
STE(3,14)                            9632.21408574282 	(obj:0)
STE(4,15)                            3991.50020208865 	(obj:0)
STE(4,16)                            5307.71428796515 	(obj:0)
STE(4,17)                            5307.71428796515 	(obj:0)
STE(4,18)                            6623.92837384166 	(obj:0)
STE(4,19)                            5649.75010097746 	(obj:0)
STE(4,20)                            6965.96418685397 	(obj:0)
STE(4,21)                            6965.96418685397 	(obj:0)
STE(4,22)                            8282.17827273048 	(obj:0)
STE(4,23)                            5649.75010097749 	(obj:0)
STE(4,24)                              6965.964186854 	(obj:0)
STE(4,25)                              6965.964186854 	(obj:0)
STE(4,26)                             8282.1782727305 	(obj:0)
STE(4,27)                            7307.99999986631 	(obj:0)
STE(4,28)                            8624.21408574282 	(obj:0)
STE(4,29)                            8624.21408574282 	(obj:0)
STE(4,30)                            9940.42817161932 	(obj:0)
STE(5,31)                            2983.50020208865 	(obj:0)
STE(5,32)                            4299.71428796515 	(obj:0)
STE(5,33)                            4299.71428796515 	(obj:0)
STE(5,34)                            5615.92837384166 	(obj:0)
STE(5,35)                            4299.71428796515 	(obj:0)
STE(5,36)                            5615.92837384166 	(obj:0)
STE(5,37)                            5615.92837384166 	(obj:0)
STE(5,38)                            6932.14245971816 	(obj:0)
STE(5,39)                            4641.75010097746 	(obj:0)
STE(5,40)                            5957.96418685397 	(obj:0)
STE(5,41)                            5957.96418685397 	(obj:0)
STE(5,42)                            7274.17827273048 	(obj:0)
STE(5,43)                            5957.96418685397 	(obj:0)
STE(5,44)                            7274.17827273051 	(obj:0)
STE(5,45)                            7274.17827273048 	(obj:0)
STE(5,46)                            8590.39235860701 	(obj:0)
STE(5,47)                            4641.75010097749 	(obj:0)
STE(5,48)                            5957.96418685403 	(obj:0)
STE(5,49)                              5957.964186854 	(obj:0)
STE(5,50)                             7274.1782727305 	(obj:0)
STE(5,51)                              5957.964186854 	(obj:0)
STE(5,52)                             7274.1782727305 	(obj:0)
STE(5,53)                            7274.17827273051 	(obj:0)
STE(5,54)                            8590.39235860701 	(obj:0)
STE(5,55)                            6299.99999986631 	(obj:0)
STE(5,56)                            7616.21408574282 	(obj:0)
STE(5,57)                            7616.21408574282 	(obj:0)
STE(5,58)                            8932.42817161932 	(obj:0)
STE(5,59)                            7616.21408574282 	(obj:0)
STE(5,60)                            8932.42817161932 	(obj:0)
STE(5,61)                            8932.42817161932 	(obj:0)
STE(5,62)                            10248.6422574958 	(obj:0)
AVE(1)                                   3216.9117036 	(obj:0)
AVE(2)                                   3366.1541945 	(obj:0)
WB(3)                                    3515.3966854 	(obj:0)
AVE(3)                                   3515.3966854 	(obj:0)
WB(4)                                3515.39406545826 	(obj:0)
AVE(4)                               3515.39406545826 	(obj:0)
WB(5)                                3167.15385943101 	(obj:0)
AVE(5)                               3167.15385943327 	(obj:0)
WG(1)                                    3216.9117036 	(obj:10)
WG(2)                                    3366.1541945 	(obj:10)
WG(5)                            2.25703174970588e-009 	(obj:10)
BG(1)                                979.380795379592 	(obj:10)
BG(2)                                1987.28116174515 	(obj:10)
BG(3)                                2673.40993877551 	(obj:10)
BG(4)                                2673.40993877551 	(obj:10)
BG(5)                                2673.40993877325 	(obj:10)
y1(1,1)                              1492.42490899996 	(obj:0)
y1(2,3)                              2626.42490912026 	(obj:0)
y1(2,4)                              1134.00000012032 	(obj:0)
y1(2,5)                              2626.42490912026 	(obj:0)
y1(2,6)                              1134.00000012032 	(obj:0)
y2(3,8)                              1385.48851144895 	(obj:0)
y2(3,10)                             1385.48851144895 	(obj:0)
y2(3,12)                             1385.48851144895 	(obj:0)
y2(3,14)                             1385.48851144895 	(obj:0)
y2(4,16)                             1385.48851144895 	(obj:0)
y2(4,18)                             1385.48851144895 	(obj:0)
y2(4,20)                             1385.48851144895 	(obj:0)
y2(4,22)                             1385.48851144895 	(obj:0)
y2(4,24)                             1385.48851144895 	(obj:0)
y2(4,26)                             1385.48851144895 	(obj:0)
y2(4,28)                             1385.48851144895 	(obj:0)
y2(4,30)                             1385.48851144895 	(obj:0)
y2(5,32)                             1385.48851144895 	(obj:0)
y2(5,34)                             1385.48851144895 	(obj:0)
y2(5,36)                             1385.48851144895 	(obj:0)
y2(5,38)                             1385.48851144895 	(obj:0)
